; benchmark generated from python API
(set-info :status unknown)
(declare-fun W_S1_V1 () Bool)
(declare-fun R_E1_V4 () Bool)
(declare-fun W_S1_V4 () Bool)
(declare-fun R_E1_V5 () Bool)
(declare-fun W_S1_V5 () Bool)
(declare-fun W_S2_V5 () Bool)
(declare-fun W_S2_V2 () Bool)
(declare-fun W_S2_V3 () Bool)
(declare-fun W_S2_V1 () Bool)
(declare-fun R_S2_V4 () Bool)
(declare-fun R_S2_V5 () Bool)
(declare-fun R_S2_V2 () Bool)
(declare-fun R_S2_V3 () Bool)
(declare-fun R_S2_V1 () Bool)
(declare-fun R_S1_V1 () Bool)
(declare-fun R_E1_V2 () Bool)
(declare-fun DISJ_W_S2_R_E1 () Bool)
(declare-fun DISJ_W_S2_R_S2 () Bool)
(declare-fun R_S1_V4 () Bool)
(declare-fun R_S1_V5 () Bool)
(declare-fun R_S1_V2 () Bool)
(declare-fun R_S1_V3 () Bool)
(declare-fun DISJ_W_S2_R_S1 () Bool)
(declare-fun DISJ_W_S1_W_S2 () Bool)
(declare-fun R_E1_V3 () Bool)
(declare-fun DISJ_W_S1_R_S2 () Bool)
(declare-fun DISJ_W_S1_R_S1 () Bool)
(declare-fun W_S2_V4 () Bool)
(declare-fun W_S1_V3 () Bool)
(declare-fun W_S1_V2 () Bool)
(declare-fun R_E1_V1 () Bool)
(declare-fun DISJ_W_S1_R_E1 () Bool)
(assert
 (let (($x315 (not (and W_S1_V4 R_E1_V4))))
 (let (($x3424 (not (and W_S1_V5 R_E1_V5))))
 (let (($x2869 (forall ((V3_0 Int) )(forall ((V2_0 Int) )(forall ((V5_0 Int) )(forall ((V4_0 Int) )(forall ((MW_S1_V1 Bool) )(forall ((MW_S1_V3 Bool) )(forall ((MW_S1_V2 Bool) )(forall ((MW_S1_V5 Bool) )(forall ((MW_S1_V4 Bool) )(forall ((MW_S2_V1 Bool) )(forall ((MW_S2_V3 Bool) )(forall ((MW_S2_V2 Bool) )(forall ((MW_S2_V5 Bool) )(forall ((MW_S2_V4 Bool) )(forall ((S1_V1_!1338 Int) )(forall ((S1_V1_!1349 Int) )(forall ((S2_V5_!1346 Int) )(forall ((S2_V5_!1358 Int) )(forall ((S1_V3_!1339 Int) )(forall ((S1_V3_!1350 Int) )(forall ((S1_V2_!1340 Int) )(forall ((S1_V2_!1351 Int) )(forall ((E1_!1337 Int) )(forall ((E1_!1348 Int) )(forall ((E1_!1354 Int) )(forall ((S2_V4_!1347 Int) )(forall ((S2_V4_!1359 Int) )(forall ((S1_V5_!1341 Int) )(forall ((S1_V5_!1352 Int) )(forall ((S2_V1_!1343 Int) )(forall ((S2_V1_!1355 Int) )(forall ((S1_V4_!1342 Int) )(forall ((S1_V4_!1353 Int) )(forall ((S2_V2_!1345 Int) )(forall ((S2_V2_!1357 Int) )(forall ((S2_V3_!1344 Int) )(forall ((S2_V3_!1356 Int) )(let (($x2024 (= (ite MW_S2_V4 S2_V4_!1347 (ite MW_S1_V4 S1_V4_!1342 V4_0)) (ite MW_S2_V4 S2_V4_!1359 (ite MW_S1_V4 S1_V4_!1353 V4_0)))))
 (let (($x264 (= (ite MW_S2_V5 S2_V5_!1346 (ite MW_S1_V5 S1_V5_!1341 V5_0)) (ite MW_S2_V5 S2_V5_!1358 (ite MW_S1_V5 S1_V5_!1352 V5_0)))))
 (let ((?x6050 (ite MW_S1_V2 S1_V2_!1351 V2_0)))
 (let ((?x5912 (ite MW_S2_V2 S2_V2_!1357 ?x6050)))
 (let ((?x5763 (ite MW_S1_V2 S1_V2_!1340 V2_0)))
 (let ((?x5775 (ite MW_S2_V2 S2_V2_!1345 ?x5763)))
 (let (($x3934 (= (ite MW_S2_V3 S2_V3_!1344 (ite MW_S1_V3 S1_V3_!1339 V3_0)) (ite MW_S2_V3 S2_V3_!1356 (ite MW_S1_V3 S1_V3_!1350 V3_0)))))
 (let (($x3518 (and (= (ite MW_S2_V1 S2_V1_!1343 (ite MW_S1_V1 S1_V1_!1338 E1_!1337)) (ite MW_S2_V1 S2_V1_!1355 E1_!1354)) $x3934 (= ?x5775 ?x5912) $x264 $x2024)))
 (let (($x5979 (and (not (<= V2_0 E1_!1337)) (>= (ite MW_S2_V1 S2_V1_!1343 (ite MW_S1_V1 S1_V1_!1338 E1_!1337)) (+ (- 1) ?x5775)) (not (<= V2_0 E1_!1348)) (>= (ite MW_S1_V1 S1_V1_!1349 E1_!1348) (+ (- 1) ?x6050)) (not (<= ?x6050 E1_!1354)) (>= (ite MW_S2_V1 S2_V1_!1355 E1_!1354) (+ (- 1) ?x5912)))))
 (let (($x5744 (= S2_V3_!1356 S2_V3_!1344)))
 (let (($x803 (and (or (not R_S2_V1) (= E1_!1354 (ite MW_S1_V1 S1_V1_!1338 E1_!1337))) (or (not R_S2_V3) (= (ite MW_S1_V3 S1_V3_!1350 V3_0) (ite MW_S1_V3 S1_V3_!1339 V3_0))) (or (not R_S2_V2) (= ?x6050 ?x5763)) (or (not R_S2_V5) (= (ite MW_S1_V5 S1_V5_!1352 V5_0) (ite MW_S1_V5 S1_V5_!1341 V5_0))) (or (not R_S2_V4) (= (ite MW_S1_V4 S1_V4_!1353 V4_0) (ite MW_S1_V4 S1_V4_!1342 V4_0))))))
 (let (($x2047 (not $x803)))
 (let (($x3269 (= S2_V2_!1345 S2_V2_!1357)))
 (let (($x734 (and (or (not R_S2_V1) (= (ite MW_S1_V1 S1_V1_!1338 E1_!1337) E1_!1354)) (or (not R_S2_V3) (= (ite MW_S1_V3 S1_V3_!1339 V3_0) (ite MW_S1_V3 S1_V3_!1350 V3_0))) (or (not R_S2_V2) (= ?x5763 ?x6050)) (or (not R_S2_V5) (= (ite MW_S1_V5 S1_V5_!1341 V5_0) (ite MW_S1_V5 S1_V5_!1352 V5_0))) (or (not R_S2_V4) (= (ite MW_S1_V4 S1_V4_!1342 V4_0) (ite MW_S1_V4 S1_V4_!1353 V4_0))))))
 (let (($x5211 (not $x734)))
 (let (($x1762 (and (or (not R_E1_V2) (= V2_0 ?x6050)) (or (not R_E1_V5) (= V5_0 (ite MW_S1_V5 S1_V5_!1352 V5_0))) (or (not R_E1_V4) (= V4_0 (ite MW_S1_V4 S1_V4_!1353 V4_0))))))
 (let (($x2069 (not $x1762)))
 (let (($x2804 (= E1_!1337 E1_!1348)))
 (let (($x4855 (and (or (not (or (not R_S1_V1) $x2804)) (= S1_V1_!1338 S1_V1_!1349)) (or $x2047 (= S2_V5_!1358 S2_V5_!1346)) (or (not (or (not R_S1_V1) $x2804)) (= S1_V3_!1339 S1_V3_!1350)) (or (not (or (not R_S1_V1) $x2804)) (= S1_V2_!1340 S1_V2_!1351)) $x2804 (or $x2069 (= E1_!1337 E1_!1354)) (or $x2069 (= E1_!1348 E1_!1354)) (or $x5211 (= S2_V4_!1347 S2_V4_!1359)) (or (not (or (not R_S1_V1) $x2804)) (= S1_V5_!1341 S1_V5_!1352)) (or $x2047 (= S2_V1_!1355 S2_V1_!1343)) (or (not (or (not R_S1_V1) (= E1_!1348 E1_!1337))) (= S1_V4_!1353 S1_V4_!1342)) (or $x5211 $x3269) (or $x2047 $x5744) (or (not MW_S1_V1) W_S1_V1) (not MW_S1_V2) (or (not MW_S1_V5) W_S1_V5) (or (not MW_S1_V4) W_S1_V4) (or (not MW_S2_V1) W_S2_V1) (or (not MW_S2_V3) W_S2_V3) (or (not MW_S2_V2) W_S2_V2) (or (not MW_S2_V5) W_S2_V5))))
 (or (not $x4855) (not $x5979) $x3518)))))))))))))))))))))
 )
 )
 )
 )
 )
 )
 )
 )
 )
 )
 )
 )
 )
 )
 )
 )
 )
 )
 )
 )
 )
 )
 )
 )
 )
 )
 )
 )
 )
 )
 )
 )
 )
 )
 )
 )
 ))
 (let (($x3435 (not (or (and W_S2_V2 R_E1_V2) (and W_S2_V5 R_E1_V5) R_E1_V4))))
 (let (($x5878 (= DISJ_W_S2_R_E1 $x3435)))
 (let (($x4164 (and W_S2_V5 R_S2_V5)))
 (let (($x6034 (and W_S2_V2 R_S2_V2)))
 (let (($x2279 (and W_S2_V3 R_S2_V3)))
 (let (($x274 (and W_S2_V1 R_S2_V1)))
 (let (($x3698 (= DISJ_W_S2_R_S2 (not (or $x274 $x2279 $x6034 $x4164 R_S2_V4)))))
 (let (($x3308 (and W_S2_V5 R_S1_V5)))
 (let (($x1276 (and W_S2_V2 R_S1_V2)))
 (let (($x3173 (and W_S2_V3 R_S1_V3)))
 (let (($x1716 (and W_S2_V1 R_S1_V1)))
 (let (($x512 (= DISJ_W_S2_R_S1 (not (or $x1716 $x3173 $x1276 $x3308 R_S1_V4)))))
 (let (($x5855 (and W_S1_V5 W_S2_V5)))
 (let (($x2476 (and W_S1_V1 W_S2_V1)))
 (let (($x731 (= DISJ_W_S1_W_S2 (not (or $x2476 W_S2_V3 $x5855 W_S1_V4)))))
 (let (($x24 (not R_E1_V3)))
 (let (($x3466 (and W_S1_V4 R_S2_V4)))
 (let (($x3842 (and W_S1_V5 R_S2_V5)))
 (let (($x2797 (and W_S1_V1 R_S2_V1)))
 (let (($x1969 (= DISJ_W_S1_R_S2 (not (or $x2797 R_S2_V3 $x3842 $x3466)))))
 (let (($x3624 (and W_S1_V4 R_S1_V4)))
 (let (($x1659 (and W_S1_V5 R_S1_V5)))
 (let (($x4268 (and W_S1_V1 R_S1_V1)))
 (let (($x1834 (= DISJ_W_S1_R_S1 (not (or $x4268 R_S1_V3 $x1659 $x3624)))))
 (let (($x2356 (not W_S1_V2)))
 (let (($x5776 (not R_E1_V1)))
 (let (($x1399 (and DISJ_W_S1_R_E1 $x5776 $x2356 W_S1_V3 W_S2_V4 $x1834 $x1969 $x24 $x731 $x512 $x3698 $x5878 $x2869 $x3424 $x315)))
 (and $x1399 W_S1_V1))))))))))))))))))))))))))))))))
(check-sat)
